NAME : problems/40-tsp/instance-47.tsp
COMMENT : No Comment
TYPE : TSP
DIMENSION: 40
EDGE_WEIGHT_TYPE : EUC_2D
NODE_COORD_SECTION
1 2567 8341 
2 5502 5690 
3 8887 2623 
4 7239 429 
5 5372 9128 
6 7718 2189 
7 759 8411 
8 4355 3695 
9 1644 610 
10 44 2638 
11 8681 1300 
12 2479 3509 
13 7501 625 
14 3832 2200 
15 9850 2052 
16 1995 4761 
17 1797 4546 
18 2422 4224 
19 2406 1358 
20 964 4487 
21 333 4451 
22 3954 7345 
23 7238 2065 
24 4885 1068 
25 6037 2279 
26 9301 8947 
27 899 2060 
28 1199 3097 
29 2192 4521 
30 1056 237 
31 7623 9209 
32 7420 2741 
33 9066 6037 
34 9283 978 
35 6821 1908 
36 2785 9289 
37 374 733 
38 5231 937 
39 9881 7188 
40 6561 6656 
EOF
